data;

param w := 20;
param n := 14;
param min_h := 20;
param max_h := 31;

set BLOCKS := 1 2 3 4 5 6 7 8 9 10 11 12 13 14 ;

param:	width	height :=
	1	4	17
	2	3	17
	3	4	11
	4	4	9
	5	3	11
	6	3	10
	7	3	9
	8	3	8
	9	3	7
	10	3	6
	11	3	5
	12	4	3
	13	3	4
	14	3	3;